unsat
(:conflicts            1
 :max-generation       1
 :max-memory           23.00
 :memory               20.93
 :mk-bool-var          1083
 :mk-clause            120
 :mk-clause-binary     690
 :num-allocs           3696088
 :num-checks           1
 :quant-instantiations 125
 :rlimit-count         58910
 :time                 0.01)
